c nIsolatedPIs 0
c maxPI 32
p cnf 168 409
c gate 33 -2 18 0
-2 -33 0
18 -33 0
2 -18 33 0
c gate 34 -1 17 0
-1 -34 0
17 -34 0
1 -17 34 0
c gate 35 -33 -34 0
-33 -35 0
-34 -35 0
33 34 35 0
c gate 36 2 -18 0
2 -36 0
-18 -36 0
-2 18 36 0
c gate 37 3 -19 0
3 -37 0
-19 -37 0
-3 19 37 0
c gate 38 -36 -37 0
-36 -38 0
-37 -38 0
36 37 38 0
c gate 39 -35 38 0
-35 -39 0
38 -39 0
35 -38 39 0
c gate 40 -4 20 0
-4 -40 0
20 -40 0
4 -20 40 0
c gate 41 -3 19 0
-3 -41 0
19 -41 0
3 -19 41 0
c gate 42 -40 -41 0
-40 -42 0
-41 -42 0
40 41 42 0
c gate 43 -39 42 0
-39 -43 0
42 -43 0
39 -42 43 0
c gate 44 5 -21 0
5 -44 0
-21 -44 0
-5 21 44 0
c gate 45 4 -20 0
4 -45 0
-20 -45 0
-4 20 45 0
c gate 46 -44 -45 0
-44 -46 0
-45 -46 0
44 45 46 0
c gate 47 -43 46 0
-43 -47 0
46 -47 0
43 -46 47 0
c gate 48 -6 -22 0
-6 -48 0
-22 -48 0
6 22 48 0
c gate 49 6 22 0
6 -49 0
22 -49 0
-6 -22 49 0
c gate 50 -48 -49 0
-48 -50 0
-49 -50 0
48 49 50 0
c gate 51 -5 21 0
-5 -51 0
21 -51 0
5 -21 51 0
c gate 52 -50 -51 0
-50 -52 0
-51 -52 0
50 51 52 0
c gate 53 -47 52 0
-47 -53 0
52 -53 0
47 -52 53 0
c gate 54 11 27 0
11 -54 0
27 -54 0
-11 -27 54 0
c gate 55 -11 -27 0
-11 -55 0
-27 -55 0
11 27 55 0
c gate 56 -54 -55 0
-54 -56 0
-55 -56 0
54 55 56 0
c gate 57 -10 26 0
-10 -57 0
26 -57 0
10 -26 57 0
c gate 58 -9 -25 0
-9 -58 0
-25 -58 0
9 25 58 0
c gate 59 9 25 0
9 -59 0
25 -59 0
-9 -25 59 0
c gate 60 -58 -59 0
-58 -60 0
-59 -60 0
58 59 60 0
c gate 61 7 -23 0
7 -61 0
-23 -61 0
-7 23 61 0
c gate 62 6 -22 0
6 -62 0
-22 -62 0
-6 22 62 0
c gate 63 -61 -62 0
-61 -63 0
-62 -63 0
61 62 63 0
c gate 64 -53 63 0
-53 -64 0
63 -64 0
53 -63 64 0
c gate 65 -7 23 0
-7 -65 0
23 -65 0
7 -23 65 0
c gate 66 -8 -24 0
-8 -66 0
-24 -66 0
8 24 66 0
c gate 67 8 24 0
8 -67 0
24 -67 0
-8 -24 67 0
c gate 68 -66 -67 0
-66 -68 0
-67 -68 0
66 67 68 0
c gate 69 -65 -68 0
-65 -69 0
-68 -69 0
65 68 69 0
c gate 70 -64 69 0
-64 -70 0
69 -70 0
64 -69 70 0
c gate 71 -60 70 0
-60 -71 0
70 -71 0
60 -70 71 0
c gate 72 10 -26 0
10 -72 0
-26 -72 0
-10 26 72 0
c gate 73 9 -25 0
9 -73 0
-25 -73 0
-9 25 73 0
c gate 74 8 -24 0
8 -74 0
-24 -74 0
-8 24 74 0
c gate 75 -60 74 0
-60 -75 0
74 -75 0
60 -74 75 0
c gate 76 -73 -75 0
-73 -76 0
-75 -76 0
73 75 76 0
c gate 77 -72 76 0
-72 -77 0
76 -77 0
72 -76 77 0
c gate 78 -71 77 0
-71 -78 0
77 -78 0
71 -77 78 0
c gate 79 -57 -78 0
-57 -79 0
-78 -79 0
57 78 79 0
c gate 80 -56 -79 0
-56 -80 0
-79 -80 0
56 79 80 0
c gate 81 12 -28 0
12 -81 0
-28 -81 0
-12 28 81 0
c gate 82 -12 28 0
-12 -82 0
28 -82 0
12 -28 82 0
c gate 83 -81 -82 0
-81 -83 0
-82 -83 0
81 82 83 0
c gate 84 -55 -83 0
-55 -84 0
-83 -84 0
55 83 84 0
c gate 85 10 26 0
10 -85 0
26 -85 0
-10 -26 85 0
c gate 86 -54 -85 0
-54 -86 0
-85 -86 0
54 85 86 0
c gate 87 -7 -23 0
-7 -87 0
-23 -87 0
7 23 87 0
c gate 88 -66 -87 0
-66 -88 0
-87 -88 0
66 87 88 0
c gate 89 -59 -67 0
-59 -89 0
-67 -89 0
59 67 89 0
c gate 90 -88 89 0
-88 -90 0
89 -90 0
88 -89 90 0
c gate 91 -10 -26 0
-10 -91 0
-26 -91 0
10 26 91 0
c gate 92 -58 -91 0
-58 -92 0
-91 -92 0
58 91 92 0
c gate 93 -90 92 0
-90 -93 0
92 -93 0
90 -92 93 0
c gate 94 86 -93 0
86 -94 0
-93 -94 0
-86 93 94 0
c gate 95 84 -94 0
84 -95 0
-94 -95 0
-84 94 95 0
c gate 96 -3 -19 0
-3 -96 0
-19 -96 0
3 19 96 0
c gate 97 2 18 0
2 -97 0
18 -97 0
-2 -18 97 0
c gate 98 -2 -18 0
-2 -98 0
-18 -98 0
2 18 98 0
c gate 99 1 17 0
1 -99 0
17 -99 0
-1 -17 99 0
c gate 100 -98 99 0
-98 -100 0
99 -100 0
98 -99 100 0
c gate 101 -97 -100 0
-97 -101 0
-100 -101 0
97 100 101 0
c gate 102 -96 -101 0
-96 -102 0
-101 -102 0
96 101 102 0
c gate 103 4 20 0
4 -103 0
20 -103 0
-4 -20 103 0
c gate 104 3 19 0
3 -104 0
19 -104 0
-3 -19 104 0
c gate 105 -103 -104 0
-103 -105 0
-104 -105 0
103 104 105 0
c gate 106 -102 105 0
-102 -106 0
105 -106 0
102 -105 106 0
c gate 107 -5 -21 0
-5 -107 0
-21 -107 0
5 21 107 0
c gate 108 -4 -20 0
-4 -108 0
-20 -108 0
4 20 108 0
c gate 109 -107 -108 0
-107 -109 0
-108 -109 0
107 108 109 0
c gate 110 -106 109 0
-106 -110 0
109 -110 0
106 -109 110 0
c gate 111 5 21 0
5 -111 0
21 -111 0
-5 -21 111 0
c gate 112 -49 -111 0
-49 -112 0
-111 -112 0
49 111 112 0
c gate 113 -110 112 0
-110 -113 0
112 -113 0
110 -112 113 0
c gate 114 -48 -113 0
-48 -114 0
-113 -114 0
48 113 114 0
c gate 115 -61 -65 0
-61 -115 0
-65 -115 0
61 65 115 0
c gate 116 -59 -115 0
-59 -116 0
-115 -116 0
59 115 116 0
c gate 117 68 116 0
68 -117 0
116 -117 0
-68 -116 117 0
c gate 118 -114 117 0
-114 -118 0
117 -118 0
114 -117 118 0
c gate 119 93 -118 0
93 -119 0
-118 -119 0
-93 118 119 0
c gate 120 86 -119 0
86 -120 0
-119 -120 0
-86 119 120 0
c gate 121 84 -120 0
84 -121 0
-120 -121 0
-84 120 121 0
c gate 122 16 -32 0
16 -122 0
-32 -122 0
-16 32 122 0
c gate 123 -16 32 0
-16 -123 0
32 -123 0
16 -32 123 0
c gate 124 -122 -123 0
-122 -124 0
-123 -124 0
122 123 124 0
c gate 125 13 -29 0
13 -125 0
-29 -125 0
-13 29 125 0
c gate 126 -13 29 0
-13 -126 0
29 -126 0
13 -29 126 0
c gate 127 -125 -126 0
-125 -127 0
-126 -127 0
125 126 127 0
c gate 128 -124 -127 0
-124 -128 0
-127 -128 0
124 127 128 0
c gate 129 15 -31 0
15 -129 0
-31 -129 0
-15 31 129 0
c gate 130 -15 31 0
-15 -130 0
31 -130 0
15 -31 130 0
c gate 131 -129 -130 0
-129 -131 0
-130 -131 0
129 130 131 0
c gate 132 14 -30 0
14 -132 0
-30 -132 0
-14 30 132 0
c gate 133 -14 30 0
-14 -133 0
30 -133 0
14 -30 133 0
c gate 134 -132 -133 0
-132 -134 0
-133 -134 0
132 133 134 0
c gate 135 -131 -134 0
-131 -135 0
-134 -135 0
131 134 135 0
c gate 136 128 135 0
128 -136 0
135 -136 0
-128 -135 136 0
c gate 137 121 136 0
121 -137 0
136 -137 0
-121 -136 137 0
c gate 138 95 -137 0
95 -138 0
-137 -138 0
-95 137 138 0
c gate 139 -53 -138 0
-53 -139 0
-138 -139 0
53 138 139 0
c gate 140 53 115 0
53 -140 0
115 -140 0
-53 -115 140 0
c gate 141 -68 140 0
-68 -141 0
140 -141 0
68 -140 141 0
c gate 142 -139 -141 0
-139 -142 0
-141 -142 0
139 141 142 0
c gate 143 -70 -142 0
-70 -143 0
-142 -143 0
70 142 143 0
c gate 144 -85 -91 0
-85 -144 0
-91 -144 0
85 91 144 0
c gate 145 76 144 0
76 -145 0
144 -145 0
-76 -144 145 0
c gate 146 71 -145 0
71 -146 0
-145 -146 0
-71 145 146 0
c gate 147 -143 -146 0
-143 -147 0
-146 -147 0
143 146 147 0
c gate 148 56 76 0
56 -148 0
76 -148 0
-56 -76 148 0
c gate 149 146 148 0
146 -149 0
148 -149 0
-146 -148 149 0
c gate 150 -147 -149 0
-147 -150 0
-149 -150 0
147 149 150 0
c gate 151 -80 -150 0
-80 -151 0
-150 -151 0
80 150 151 0
c gate 152 83 124 0
83 -152 0
124 -152 0
-83 -124 152 0
c gate 153 127 131 0
127 -153 0
131 -153 0
-127 -131 153 0
c gate 154 134 153 0
134 -154 0
153 -154 0
-134 -153 154 0
c gate 155 152 154 0
152 -155 0
154 -155 0
-152 -154 155 0
c gate 156 80 155 0
80 -156 0
155 -156 0
-80 -155 156 0
c gate 157 -151 -156 0
-151 -157 0
-156 -157 0
151 156 157 0
c gate 158 48 115 0
48 -158 0
115 -158 0
-48 -115 158 0
c gate 159 -114 -158 0
-114 -159 0
-158 -159 0
114 158 159 0
c gate 160 -157 159 0
-157 -160 0
159 -160 0
157 -159 160 0
c gate 161 -95 160 0
-95 -161 0
160 -161 0
95 -160 161 0
c gate 162 -137 -161 0
-137 -162 0
-161 -162 0
137 161 162 0
c gate 163 -157 -162 0
-157 -163 0
-162 -163 0
157 162 163 0
c gate 164 138 157 0
138 -164 0
157 -164 0
-138 -157 164 0
c gate 165 -163 -164 0
-163 -165 0
-164 -165 0
163 164 165 0
c gate 166 -53 165 0
-53 -166 0
165 -166 0
53 -165 166 0
c gate 167 53 -165 0
53 -167 0
-165 -167 0
-53 165 167 0
c gate 168 -166 -167 0
-166 -168 0
-167 -168 0
166 167 168 0
c PO
168 0
